DIMENSION: 28
EDGE_WEIGHT_TYPE: EXPLICIT
EDGE_WEIGHT_FORMAT: FULL_MATRIX
EDGE_WEIGHT_SECTION:
32767 32767 32767 32767 73 32767 32767 32767 32767 32767 32767 94 61 32767 32767 82 32767 32767 32767 32767 34 32767 32767 32767 18 32767 32767 32767 
32767 32767 32767 32767 56 32767 32767 41 88 32767 48 85 32767 32767 22 32767 19 9 32767 32767 32767 32767 30 32767 32767 11 32767 32767 
32767 32767 32767 46 32767 85 32767 32 32767 32767 100 67 32767 32767 32767 65 32767 32767 32767 32767 32767 57 27 32767 32767 46 32767 32767 
32767 32767 46 32767 32767 32767 32767 32767 1 32767 52 33 3 32767 68 96 50 32767 32767 32767 32767 32767 95 73 79 32767 32767 32767 
73 56 32767 32767 32767 32767 91 75 32767 7 32767 32767 32767 78 32767 90 32767 32767 32767 32767 32767 32767 32767 75 51 21 44 46 
32767 32767 85 32767 32767 32767 32767 32767 32767 32767 32767 32767 32767 6 32767 21 32767 32767 98 32767 32767 32767 54 32767 78 47 32767 90 
32767 32767 32767 32767 91 32767 32767 32767 32767 32767 59 33 61 47 32767 32767 32767 32767 52 32767 32767 64 32767 18 32767 74 32767 19 
32767 41 32 32767 75 32767 32767 32767 32767 32767 32767 12 32767 96 32767 32767 32767 32767 23 32767 84 32767 32767 32767 32767 32767 95 32767 
32767 88 32767 1 32767 32767 32767 32767 32767 32767 32767 32767 32767 32767 32767 24 88 32767 32767 32767 86 32767 32767 32767 32767 10 99 17 
32767 32767 32767 32767 7 32767 32767 32767 32767 32767 32767 32767 87 32767 32767 32767 32767 52 44 49 32767 32767 32767 32767 17 32767 32767 8 
32767 48 100 52 32767 32767 59 32767 32767 32767 32767 32767 32767 32767 32767 32767 32767 88 31 32767 94 32767 32767 32767 32767 32767 8 32767 
94 85 67 33 32767 32767 33 12 32767 32767 32767 32767 77 32767 32767 32767 39 32767 32767 54 32767 32767 32767 63 32767 77 8 32767 
61 32767 32767 3 32767 32767 61 32767 32767 87 32767 77 32767 83 32767 32767 32767 32767 32767 21 44 32767 32767 32767 30 32767 32767 32767 
32767 32767 32767 32767 78 6 47 96 32767 32767 32767 32767 83 32767 32767 88 32767 50 74 32767 32767 32767 16 32767 32767 32767 32767 32767 
32767 22 32767 68 32767 32767 32767 32767 32767 32767 32767 32767 32767 32767 32767 94 25 32767 32767 32767 58 32767 32767 25 32767 12 32767 32767 
82 32767 65 96 90 21 32767 32767 24 32767 32767 32767 32767 88 94 32767 32767 31 32767 32767 32767 32767 83 32767 32767 32767 64 32767 
32767 19 32767 50 32767 32767 32767 32767 88 32767 32767 39 32767 32767 25 32767 32767 32767 32767 8 32767 17 32767 90 32767 32767 32767 32767 
32767 9 32767 32767 32767 32767 32767 32767 32767 52 88 32767 32767 50 32767 31 32767 32767 32767 6 32767 49 4 32767 32767 32767 31 60 
32767 32767 32767 32767 32767 98 52 23 32767 44 31 32767 32767 74 32767 32767 32767 32767 32767 32767 32767 32767 32767 72 18 98 30 85 
32767 32767 32767 32767 32767 32767 32767 32767 32767 49 32767 54 21 32767 32767 32767 8 6 32767 32767 32767 32767 46 32767 32767 32767 30 54 
34 32767 32767 32767 32767 32767 32767 84 86 32767 94 32767 44 32767 58 32767 32767 32767 32767 32767 32767 80 31 32767 32767 32767 82 32767 
32767 32767 57 32767 32767 32767 64 32767 32767 32767 32767 32767 32767 32767 32767 32767 17 49 32767 32767 80 32767 6 86 53 32767 32767 32767 
32767 30 27 95 32767 54 32767 32767 32767 32767 32767 32767 32767 16 32767 83 32767 4 32767 46 31 6 32767 32767 32767 32767 32767 32767 
32767 32767 32767 73 75 32767 18 32767 32767 32767 32767 63 32767 32767 25 32767 90 32767 72 32767 32767 86 32767 32767 32767 32767 62 32767 
18 32767 32767 79 51 78 32767 32767 32767 17 32767 32767 30 32767 32767 32767 32767 32767 18 32767 32767 53 32767 32767 32767 15 32767 32767 
32767 11 46 32767 21 47 74 32767 10 32767 32767 77 32767 32767 12 32767 32767 32767 98 32767 32767 32767 32767 32767 15 32767 4 32767 
32767 32767 32767 32767 44 32767 32767 95 99 32767 8 8 32767 32767 32767 64 32767 31 30 30 82 32767 32767 62 32767 4 32767 32767 
32767 32767 32767 32767 46 90 19 32767 17 8 32767 32767 32767 32767 32767 32767 32767 60 85 54 32767 32767 32767 32767 32767 32767 32767 32767 
EOF